<number of tasks>
45

<cycle time>
111

<task times>
1 9
2 9
3 10
4 10
5 17
6 17
7 13
8 13
9 20
10 20
11 10
12 11
13 6
14 22
15 11
16 19
17 12
18 3
19 7
20 4
21 55
22 14
23 27
24 29
25 26
26 6
27 5
28 24
29 4
30 5
31 7
32 4
33 15
34 3
35 7
36 9
37 4
38 7
39 5
40 4
41 21
42 12
43 6
44 5
45 5

<precedence relations>
1,3
1,7
2,4
2,8
3,5
4,6
5,9
6,10
7,9
7,14
8,10
8,14
9,41
10,41
11,13
12,13
12,37
13,14
13,15
14,17
14,25
14,29
14,30
14,31
14,32
15,16
15,18
15,23
15,24
16,19
17,26
17,27
18,19
19,20
19,33
20,21
21,22
22,28
23,33
24,33
25,26
26,38
27,28
27,33
28,38
29,41
30,41
31,41
32,41
33,34
33,35
33,36
34,38
35,40
36,38
37,43
38,40
39,41
40,41
41,42
42,44
42,45

<setup times forward>
1,3:2
1,4:2
1,6:2
1,10:1
1,16:2
1,19:2
1,20:1
1,21:1
1,22:1
1,23:1
1,24:2
1,39:1
1,43:1
2,3:2
2,4:2
2,5:2
2,9:1
2,16:2
2,19:2
2,20:1
2,21:1
2,22:1
2,23:1
2,24:2
2,39:1
2,43:1
3,2:2
3,7:2
3,8:2
3,10:3
3,11:2
3,12:2
3,13:2
3,14:2
3,15:2
3,17:3
3,18:2
3,20:3
3,21:1
3,22:1
3,23:3
3,25:1
3,26:1
3,27:1
3,28:1
3,29:1
3,30:3
3,31:3
3,32:3
3,33:1
3,34:1
3,35:1
3,36:1
3,37:2
3,38:1
3,39:3
3,40:1
3,43:3
4,1:2
4,7:2
4,8:2
4,9:3
4,11:2
4,12:2
4,13:2
4,14:2
4,15:2
4,17:3
4,18:2
4,20:3
4,21:1
4,22:1
4,23:3
4,25:1
4,26:1
4,27:1
4,28:1
4,29:1
4,30:3
4,31:3
4,32:3
4,33:1
4,34:1
4,35:1
4,36:1
4,37:2
4,38:1
4,39:3
4,40:1
4,43:3
5,2:2
5,7:2
5,8:2
5,9:3
5,10:3
5,11:2
5,12:2
5,13:2
5,14:2
5,15:2
5,17:3
5,18:2
5,20:3
5,21:1
5,22:1
5,23:3
5,25:1
5,26:1
5,27:1
5,28:1
5,29:1
5,30:3
5,31:3
5,32:3
5,33:1
5,34:1
5,35:1
5,36:1
5,37:2
5,38:1
5,39:3
5,40:1
5,43:3
6,1:2
6,7:2
6,8:2
6,9:3
6,10:3
6,11:2
6,12:2
6,13:2
6,14:2
6,15:2
6,17:3
6,18:2
6,20:3
6,21:1
6,22:1
6,23:3
6,25:1
6,26:1
6,27:1
6,28:1
6,29:1
6,30:3
6,31:3
6,32:3
6,33:1
6,34:1
6,35:1
6,36:1
6,37:2
6,38:1
6,39:3
6,40:1
6,43:3
7,3:2
7,4:2
7,5:2
7,6:2
7,9:1
7,10:1
7,16:2
7,19:2
7,20:1
7,21:1
7,22:1
7,23:1
7,24:2
7,39:1
7,43:1
8,3:2
8,4:2
8,5:2
8,6:2
8,9:1
8,10:1
8,16:2
8,19:2
8,20:1
8,21:1
8,22:1
8,23:1
8,24:2
8,39:1
8,43:1
9,2:1
9,4:3
9,6:3
9,8:1
9,11:1
9,12:1
9,13:1
9,14:1
9,15:1
9,16:3
9,18:1
9,19:3
9,21:2
9,22:2
9,24:3
9,25:2
9,26:2
9,27:2
9,28:2
9,29:2
9,33:2
9,34:2
9,35:2
9,36:2
9,37:1
9,38:2
9,40:2
9,41:2
10,1:1
10,3:3
10,5:3
10,7:1
10,11:1
10,12:1
10,13:1
10,14:1
10,15:1
10,16:3
10,18:1
10,19:3
10,21:2
10,22:2
10,24:3
10,25:2
10,26:2
10,27:2
10,28:2
10,29:2
10,33:2
10,34:2
10,35:2
10,36:2
10,37:1
10,38:2
10,40:2
10,41:2
11,3:2
11,4:2
11,5:2
11,6:2
11,9:1
11,10:1
11,39:1
11,43:1
12,3:2
12,4:2
12,5:2
12,6:2
12,9:1
12,10:1
12,39:1
13,3:2
13,4:2
13,5:2
13,6:2
13,9:1
13,10:1
13,39:1
13,43:1
14,3:2
14,4:2
14,5:2
14,6:2
14,9:1
14,10:1
14,16:2
14,17:1
14,19:2
14,20:1
14,21:1
14,22:1
14,23:1
14,24:2
14,25:1
14,29:1
14,30:1
14,31:1
14,32:1
14,39:1
14,43:1
15,3:2
15,4:2
15,5:2
15,6:2
15,9:1
15,10:1
15,16:2
15,17:1
15,23:1
15,24:2
15,25:1
15,26:1
15,27:1
15,29:1
15,30:1
15,31:1
15,32:1
15,39:1
15,43:1
16,1:2
16,2:2
16,7:2
16,8:2
16,9:3
16,10:3
16,14:2
16,17:3
16,18:2
16,23:3
16,25:1
16,26:1
16,27:1
16,29:1
16,30:3
16,31:3
16,32:3
16,37:2
16,39:3
16,43:3
17,3:3
17,4:3
17,5:3
17,6:3
17,15:1
17,16:3
17,18:1
17,19:3
17,21:2
17,22:2
17,24:3
17,25:2
17,26:2
17,27:2
17,29:2
17,37:1
18,3:2
18,4:2
18,5:2
18,6:2
18,9:1
18,10:1
18,16:2
18,17:1
18,19:2
18,23:1
18,24:2
18,25:1
18,26:1
18,27:1
18,29:1
18,30:1
18,31:1
18,32:1
18,39:1
18,43:1
19,1:2
19,2:2
19,7:2
19,8:2
19,9:3
19,10:3
19,14:2
19,17:3
19,20:3
19,23:3
19,25:1
19,26:1
19,27:1
19,29:1
19,30:3
19,31:3
19,32:3
19,33:1
19,37:2
19,39:3
19,43:3
20,1:1
20,2:1
20,3:3
20,4:3
20,5:3
20,6:3
20,7:1
20,8:1
20,14:1
20,21:2
20,24:3
20,25:2
20,26:2
20,27:2
20,29:2
20,33:2
20,34:2
20,35:2
20,36:2
20,37:1
21,1:1
21,2:1
21,3:1
21,4:1
21,5:1
21,6:1
21,7:1
21,8:1
21,9:2
21,10:2
21,14:1
21,17:2
21,23:2
21,24:1
21,30:2
21,31:2
21,32:2
21,37:1
21,39:2
21,43:2
22,1:1
22,2:1
22,3:1
22,4:1
22,5:1
22,6:1
22,7:1
22,8:1
22,9:2
22,10:2
22,14:1
22,17:2
22,23:2
22,24:1
22,30:2
22,31:2
22,32:2
22,37:1
22,39:2
22,43:2
23,1:1
23,2:1
23,3:3
23,4:3
23,5:3
23,6:3
23,7:1
23,8:1
23,14:1
23,16:3
23,18:1
23,19:3
23,21:2
23,22:2
23,24:3
23,25:2
23,26:2
23,27:2
23,28:2
23,29:2
23,33:2
23,37:1
24,1:2
24,2:2
24,7:2
24,8:2
24,9:3
24,10:3
24,14:2
24,17:3
24,18:2
24,20:3
24,21:1
24,22:1
24,23:3
24,25:1
24,26:1
24,27:1
24,28:1
24,29:1
24,30:3
24,31:3
24,32:3
24,33:1
24,37:2
24,39:3
24,43:3
25,3:1
25,4:1
25,5:1
25,6:1
25,9:2
25,10:2
25,15:1
25,16:1
25,17:2
25,18:1
25,19:1
25,20:2
25,23:2
25,24:1
25,30:2
25,31:2
25,32:2
25,37:1
25,39:2
25,43:2
26,3:1
26,4:1
26,5:1
26,6:1
26,9:2
26,10:2
26,15:1
26,16:1
26,18:1
26,19:1
26,20:2
26,23:2
26,24:1
26,30:2
26,31:2
26,32:2
26,37:1
26,39:2
26,43:2
27,3:1
27,4:1
27,5:1
27,6:1
27,9:2
27,10:2
27,15:1
27,16:1
27,18:1
27,19:1
27,20:2
27,23:2
27,24:1
27,30:2
27,31:2
27,32:2
27,37:1
27,39:2
27,43:2
28,3:1
28,4:1
28,5:1
28,6:1
28,9:2
28,10:2
28,23:2
28,24:1
28,30:2
28,31:2
28,32:2
28,37:1
28,39:2
28,43:2
29,3:1
29,4:1
29,5:1
29,6:1
29,9:2
29,10:2
29,15:1
29,16:1
29,17:2
29,18:1
29,19:1
29,20:2
29,23:2
29,24:1
29,30:2
29,31:2
29,32:2
29,37:1
29,39:2
29,43:2
30,3:3
30,4:3
30,5:3
30,6:3
30,15:1
30,16:3
30,18:1
30,19:3
30,21:2
30,22:2
30,24:3
30,25:2
30,26:2
30,27:2
30,28:2
30,29:2
30,33:2
30,34:2
30,35:2
30,36:2
30,37:1
30,38:2
30,40:2
30,41:2
31,3:3
31,4:3
31,5:3
31,6:3
31,15:1
31,16:3
31,18:1
31,19:3
31,21:2
31,22:2
31,24:3
31,25:2
31,26:2
31,27:2
31,28:2
31,29:2
31,33:2
31,34:2
31,35:2
31,36:2
31,37:1
31,38:2
31,40:2
31,41:2
32,3:3
32,4:3
32,5:3
32,6:3
32,15:1
32,16:3
32,18:1
32,19:3
32,21:2
32,22:2
32,24:3
32,25:2
32,26:2
32,27:2
32,28:2
32,29:2
32,33:2
32,34:2
32,35:2
32,36:2
32,37:1
32,38:2
32,40:2
32,41:2
33,3:1
33,4:1
33,5:1
33,6:1
33,9:2
33,10:2
33,20:2
33,30:2
33,31:2
33,32:2
33,37:1
33,39:2
33,43:2
34,3:1
34,4:1
34,5:1
34,6:1
34,9:2
34,10:2
34,20:2
34,30:2
34,31:2
34,32:2
34,37:1
34,39:2
34,43:2
35,3:1
35,4:1
35,5:1
35,6:1
35,9:2
35,10:2
35,20:2
35,30:2
35,31:2
35,32:2
35,37:1
35,39:2
35,43:2
36,3:1
36,4:1
36,5:1
36,6:1
36,9:2
36,10:2
36,20:2
36,30:2
36,31:2
36,32:2
36,37:1
36,39:2
36,43:2
37,3:2
37,4:2
37,5:2
37,6:2
37,9:1
37,10:1
37,16:2
37,17:1
37,19:2
37,20:1
37,21:1
37,22:1
37,23:1
37,24:2
37,25:1
37,26:1
37,27:1
37,28:1
37,29:1
37,30:1
37,31:1
37,32:1
37,33:1
37,34:1
37,35:1
37,36:1
37,38:1
37,39:1
37,40:1
37,41:1
37,42:1
37,43:1
37,44:1
37,45:1
38,3:1
38,4:1
38,5:1
38,6:1
38,9:2
38,10:2
38,30:2
38,31:2
38,32:2
38,37:1
38,39:2
38,43:2
39,1:1
39,2:1
39,3:3
39,4:3
39,5:3
39,6:3
39,7:1
39,8:1
39,11:1
39,12:1
39,13:1
39,14:1
39,15:1
39,16:3
39,18:1
39,19:3
39,21:2
39,22:2
39,24:3
39,25:2
39,26:2
39,27:2
39,28:2
39,29:2
39,33:2
39,34:2
39,35:2
39,36:2
39,37:1
39,38:2
39,40:2
39,41:2
40,3:1
40,4:1
40,5:1
40,6:1
40,9:2
40,10:2
40,30:2
40,31:2
40,32:2
40,37:1
40,39:2
40,43:2
41,37:1
41,43:2
42,37:1
42,43:2
43,1:1
43,2:1
43,3:3
43,4:3
43,5:3
43,6:3
43,7:1
43,8:1
43,11:1
43,13:1
43,14:1
43,15:1
43,16:3
43,18:1
43,19:3
43,21:2
43,22:2
43,24:3
43,25:2
43,26:2
43,27:2
43,28:2
43,29:2
43,33:2
43,34:2
43,35:2
43,36:2
43,38:2
43,40:2
43,41:2
43,42:2
43,44:2
43,45:2
44,37:1
44,43:2
45,37:1
45,43:2

<setup times backward>
1,10:1
1,20:1
1,23:1
1,39:1
1,43:1
2,9:1
2,20:1
2,23:1
2,39:1
2,43:1
3,1:2
3,2:2
3,7:2
3,8:2
3,10:3
3,11:2
3,12:2
3,13:2
3,14:2
3,15:2
3,17:3
3,18:2
3,20:3
3,21:1
3,22:1
3,23:3
3,25:1
3,26:1
3,27:1
3,28:1
3,29:1
3,30:3
3,31:3
3,32:3
3,33:1
3,34:1
3,35:1
3,36:1
3,37:2
3,38:1
3,39:3
3,40:1
3,43:3
4,1:2
4,2:2
4,7:2
4,8:2
4,9:3
4,11:2
4,12:2
4,13:2
4,14:2
4,15:2
4,17:3
4,18:2
4,20:3
4,21:1
4,22:1
4,23:3
4,25:1
4,26:1
4,27:1
4,28:1
4,29:1
4,30:3
4,31:3
4,32:3
4,33:1
4,34:1
4,35:1
4,36:1
4,37:2
4,38:1
4,39:3
4,40:1
4,43:3
5,1:2
5,2:2
5,7:2
5,8:2
5,10:3
5,11:2
5,12:2
5,13:2
5,14:2
5,15:2
5,17:3
5,18:2
5,20:3
5,21:1
5,22:1
5,23:3
5,25:1
5,26:1
5,27:1
5,28:1
5,29:1
5,30:3
5,31:3
5,32:3
5,33:1
5,34:1
5,35:1
5,36:1
5,37:2
5,38:1
5,39:3
5,40:1
5,43:3
6,1:2
6,2:2
6,7:2
6,8:2
6,9:3
6,11:2
6,12:2
6,13:2
6,14:2
6,15:2
6,17:3
6,18:2
6,20:3
6,21:1
6,22:1
6,23:3
6,25:1
6,26:1
6,27:1
6,28:1
6,29:1
6,30:3
6,31:3
6,32:3
6,33:1
6,34:1
6,35:1
6,36:1
6,37:2
6,38:1
6,39:3
6,40:1
6,43:3
7,10:1
7,20:1
7,23:1
7,39:1
7,43:1
8,9:1
8,20:1
8,23:1
8,39:1
8,43:1
11,9:1
11,10:1
11,39:1
11,43:1
12,9:1
12,10:1
12,39:1
13,9:1
13,10:1
13,39:1
13,43:1
14,9:1
14,10:1
14,20:1
14,23:1
14,39:1
14,43:1
15,9:1
15,10:1
15,17:1
15,30:1
15,31:1
15,32:1
15,39:1
15,43:1
16,1:2
16,2:2
16,7:2
16,8:2
16,9:3
16,10:3
16,11:2
16,12:2
16,13:2
16,14:2
16,15:2
16,17:3
16,18:2
16,23:3
16,25:1
16,26:1
16,27:1
16,29:1
16,30:3
16,31:3
16,32:3
16,37:2
16,39:3
16,43:3
18,9:1
18,10:1
18,17:1
18,23:1
18,30:1
18,31:1
18,32:1
18,39:1
18,43:1
19,1:2
19,2:2
19,7:2
19,8:2
19,9:3
19,10:3
19,11:2
19,12:2
19,13:2
19,14:2
19,15:2
19,17:3
19,18:2
19,23:3
19,25:1
19,26:1
19,27:1
19,29:1
19,30:3
19,31:3
19,32:3
19,37:2
19,39:3
19,43:3
21,1:1
21,2:1
21,7:1
21,8:1
21,9:2
21,10:2
21,11:1
21,12:1
21,13:1
21,14:1
21,15:1
21,17:2
21,18:1
21,20:2
21,23:2
21,30:2
21,31:2
21,32:2
21,37:1
21,39:2
21,43:2
22,1:1
22,2:1
22,7:1
22,8:1
22,9:2
22,10:2
22,11:1
22,12:1
22,13:1
22,14:1
22,15:1
22,17:2
22,18:1
22,20:2
22,23:2
22,30:2
22,31:2
22,32:2
22,37:1
22,39:2
22,43:2
24,1:2
24,2:2
24,7:2
24,8:2
24,9:3
24,10:3
24,11:2
24,12:2
24,13:2
24,14:2
24,15:2
24,17:3
24,18:2
24,20:3
24,21:1
24,22:1
24,23:3
24,25:1
24,26:1
24,27:1
24,28:1
24,29:1
24,30:3
24,31:3
24,32:3
24,37:2
24,39:3
24,43:3
25,1:1
25,2:1
25,7:1
25,8:1
25,9:2
25,10:2
25,11:1
25,12:1
25,13:1
25,14:1
25,15:1
25,17:2
25,18:1
25,20:2
25,23:2
25,30:2
25,31:2
25,32:2
25,37:1
25,39:2
25,43:2
26,1:1
26,2:1
26,7:1
26,8:1
26,9:2
26,10:2
26,11:1
26,12:1
26,13:1
26,14:1
26,15:1
26,17:2
26,18:1
26,20:2
26,23:2
26,30:2
26,31:2
26,32:2
26,37:1
26,39:2
26,43:2
27,1:1
27,2:1
27,7:1
27,8:1
27,9:2
27,10:2
27,11:1
27,12:1
27,13:1
27,14:1
27,15:1
27,17:2
27,18:1
27,20:2
27,23:2
27,30:2
27,31:2
27,32:2
27,37:1
27,39:2
27,43:2
28,1:1
28,2:1
28,7:1
28,8:1
28,9:2
28,10:2
28,11:1
28,12:1
28,13:1
28,14:1
28,15:1
28,17:2
28,18:1
28,20:2
28,23:2
28,30:2
28,31:2
28,32:2
28,37:1
28,39:2
28,43:2
29,1:1
29,2:1
29,7:1
29,8:1
29,9:2
29,10:2
29,11:1
29,12:1
29,13:1
29,14:1
29,15:1
29,17:2
29,18:1
29,20:2
29,23:2
29,30:2
29,31:2
29,32:2
29,37:1
29,39:2
29,43:2
33,1:1
33,2:1
33,7:1
33,8:1
33,9:2
33,10:2
33,11:1
33,12:1
33,13:1
33,14:1
33,15:1
33,17:2
33,18:1
33,20:2
33,23:2
33,30:2
33,31:2
33,32:2
33,37:1
33,39:2
33,43:2
34,1:1
34,2:1
34,7:1
34,8:1
34,9:2
34,10:2
34,11:1
34,12:1
34,13:1
34,14:1
34,15:1
34,17:2
34,18:1
34,20:2
34,23:2
34,30:2
34,31:2
34,32:2
34,37:1
34,39:2
34,43:2
35,1:1
35,2:1
35,7:1
35,8:1
35,9:2
35,10:2
35,11:1
35,12:1
35,13:1
35,14:1
35,15:1
35,17:2
35,18:1
35,20:2
35,23:2
35,30:2
35,31:2
35,32:2
35,37:1
35,39:2
35,43:2
36,1:1
36,2:1
36,7:1
36,8:1
36,9:2
36,10:2
36,11:1
36,12:1
36,13:1
36,14:1
36,15:1
36,17:2
36,18:1
36,20:2
36,23:2
36,30:2
36,31:2
36,32:2
36,37:1
36,39:2
36,43:2
37,9:1
37,10:1
37,17:1
37,20:1
37,23:1
37,30:1
37,31:1
37,32:1
37,39:1
38,1:1
38,2:1
38,7:1
38,8:1
38,9:2
38,10:2
38,11:1
38,12:1
38,13:1
38,14:1
38,15:1
38,17:2
38,18:1
38,20:2
38,23:2
38,30:2
38,31:2
38,32:2
38,37:1
38,39:2
38,43:2
40,1:1
40,2:1
40,7:1
40,8:1
40,9:2
40,10:2
40,11:1
40,12:1
40,13:1
40,14:1
40,15:1
40,17:2
40,18:1
40,20:2
40,23:2
40,30:2
40,31:2
40,32:2
40,37:1
40,39:2
40,43:2
41,1:1
41,2:1
41,7:1
41,8:1
41,9:2
41,10:2
41,11:1
41,12:1
41,13:1
41,14:1
41,15:1
41,17:2
41,18:1
41,20:2
41,23:2
41,30:2
41,31:2
41,32:2
41,37:1
41,39:2
41,43:2
42,1:1
42,2:1
42,7:1
42,8:1
42,9:2
42,10:2
42,11:1
42,12:1
42,13:1
42,14:1
42,15:1
42,17:2
42,18:1
42,20:2
42,23:2
42,30:2
42,31:2
42,32:2
42,37:1
42,39:2
42,43:2
44,1:1
44,2:1
44,7:1
44,8:1
44,9:2
44,10:2
44,11:1
44,12:1
44,13:1
44,14:1
44,15:1
44,17:2
44,18:1
44,20:2
44,23:2
44,30:2
44,31:2
44,32:2
44,37:1
44,39:2
44,43:2
45,1:1
45,2:1
45,7:1
45,8:1
45,9:2
45,10:2
45,11:1
45,12:1
45,13:1
45,14:1
45,15:1
45,17:2
45,18:1
45,20:2
45,23:2
45,30:2
45,31:2
45,32:2
45,37:1
45,39:2
45,43:2

<end>

<optimal SALBP-1 value>
5


<rand seed>
467321153

